(set-logic QF_LIA)
(declare-fun x0 () Int)
(declare-fun x1 () Int)
(declare-fun x2 () Int)
(declare-fun x3 () Int)
(declare-fun x4 () Int)
(declare-fun x5 () Int)
(declare-fun x6 () Int)
(declare-fun x7 () Int)
(declare-fun x8 () Int)
(declare-fun x9 () Int)
(declare-fun A0 () Bool)
(declare-fun A1 () Bool)
(declare-fun A2 () Bool)
(declare-fun A3 () Bool)
(declare-fun A4 () Bool)
(declare-fun A5 () Bool)
(declare-fun A6 () Bool)
(declare-fun A7 () Bool)
(declare-fun A8 () Bool)
(declare-fun A9 () Bool)
(assert (let ((.def_0 (* 1 x5))) (let ((.def_1 (* (- 1) x4))) (let ((.def_2 (+ .def_1 .def_0))) (let ((.def_3 (< .def_2 1))) (let ((.def_4 (not A9))) (let ((.def_5 (or .def_4 .def_3))) (let ((.def_6 (not .def_5))) (let ((.def_7 (< .def_0 1))) (let ((.def_8 (not .def_7))) (let ((.def_9 (* (- 1) x8))) (let ((.def_10 (< .def_9 (- 1)))) (let ((.def_11 (or .def_10 .def_8))) (let ((.def_12 (or .def_11 .def_6))) (let ((.def_13 (* 1 x6))) (let ((.def_14 (* 1 x0))) (let ((.def_15 (+ .def_14 .def_13))) (let ((.def_16 (< .def_15 1))) (let ((.def_17 (not A4))) (let ((.def_18 (or .def_17 .def_16))) (let ((.def_19 (not .def_18))) (let ((.def_20 (* (- 1) x5))) (let ((.def_21 (< .def_20 (- 1)))) (let ((.def_22 (* 1 x1))) (let ((.def_23 (+ .def_14 .def_22))) (let ((.def_24 (< .def_23 1))) (let ((.def_25 (or .def_24 .def_21))) (let ((.def_26 (or .def_25 .def_19))) (let ((.def_27 (not .def_26))) (let ((.def_28 (and .def_27 .def_12))) (let ((.def_29 (not .def_28))) (let ((.def_30 (< .def_13 1))) (let ((.def_31 (not .def_30))) (let ((.def_32 (and A2 .def_31))) (let ((.def_33 (not .def_32))) (let ((.def_34 (* (- 1) x2))) (let ((.def_35 (+ .def_13 .def_34))) (let ((.def_36 (< .def_35 (- 1)))) (let ((.def_37 (not .def_36))) (let ((.def_38 (* 1 x2))) (let ((.def_39 (< .def_38 (- 1)))) (let ((.def_40 (or .def_39 .def_37))) (let ((.def_41 (or .def_40 .def_33))) (let ((.def_42 (not .def_41))) (let ((.def_43 (* 1 x9))) (let ((.def_44 (+ .def_43 .def_0))) (let ((.def_45 (< .def_44 1))) (let ((.def_46 (not .def_45))) (let ((.def_47 (and A4 .def_46))) (let ((.def_48 (+ .def_22 .def_38))) (let ((.def_49 (< .def_48 1))) (let ((.def_50 (and .def_49 A0))) (let ((.def_51 (or .def_50 .def_47))) (let ((.def_52 (and .def_51 .def_42))) (let ((.def_53 (not .def_52))) (let ((.def_54 (or .def_53 .def_29))) (let ((.def_55 (not A8))) (let ((.def_56 (or .def_55 A0))) (let ((.def_57 (not .def_56))) (let ((.def_58 (* (- 1) x6))) (let ((.def_59 (< .def_58 1))) (let ((.def_60 (not .def_59))) (let ((.def_61 (or .def_60 A0))) (let ((.def_62 (not .def_61))) (let ((.def_63 (or .def_62 .def_57))) (let ((.def_64 (not .def_63))) (let ((.def_65 (not A5))) (let ((.def_66 (and .def_8 .def_65))) (let ((.def_67 (not A2))) (let ((.def_68 (and .def_67 .def_4))) (let ((.def_69 (not .def_68))) (let ((.def_70 (or .def_69 .def_66))) (let ((.def_71 (not .def_70))) (let ((.def_72 (or .def_71 .def_64))) (let ((.def_73 (not .def_72))) (let ((.def_74 (not A3))) (let ((.def_75 (or A6 .def_74))) (let ((.def_76 (* 1 x3))) (let ((.def_77 (+ .def_14 .def_76))) (let ((.def_78 (< .def_77 1))) (let ((.def_79 (not .def_78))) (let ((.def_80 (or .def_79 A6))) (let ((.def_81 (and .def_80 .def_75))) (let ((.def_82 (not .def_81))) (let ((.def_83 (< .def_20 1))) (let ((.def_84 (not .def_83))) (let ((.def_85 (and .def_84 .def_67))) (let ((.def_86 (not A6))) (let ((.def_87 (or A3 .def_86))) (let ((.def_88 (not .def_87))) (let ((.def_89 (and .def_88 .def_85))) (let ((.def_90 (and .def_89 .def_82))) (let ((.def_91 (not .def_90))) (let ((.def_92 (and .def_91 .def_73))) (let ((.def_93 (not .def_92))) (let ((.def_94 (= .def_93 .def_54))) (let ((.def_95 (* (- 1) x0))) (let ((.def_96 (* (- 1) x3))) (let ((.def_97 (+ .def_96 .def_95))) (let ((.def_98 (< .def_97 (- 1)))) (let ((.def_99 (and .def_65 .def_98))) (let ((.def_100 (* (- 1) x1))) (let ((.def_101 (< .def_100 (- 1)))) (let ((.def_102 (= .def_101 .def_17))) (let ((.def_103 (not .def_102))) (let ((.def_104 (or .def_103 .def_99))) (let ((.def_105 (or A6 A1))) (let ((.def_106 (and .def_86 .def_86))) (let ((.def_107 (not .def_106))) (let ((.def_108 (or .def_107 .def_105))) (let ((.def_109 (or .def_108 .def_104))) (let ((.def_110 (not A0))) (let ((.def_111 (* 1 x8))) (let ((.def_112 (+ .def_111 .def_95))) (let ((.def_113 (< .def_112 (- 1)))) (let ((.def_114 (and .def_113 .def_110))) (let ((.def_115 (not .def_114))) (let ((.def_116 (* (- 1) x7))) (let ((.def_117 (+ .def_116 .def_1))) (let ((.def_118 (< .def_117 1))) (let ((.def_119 (not .def_118))) (let ((.def_120 (or .def_119 A9))) (let ((.def_121 (and .def_120 .def_115))) (let ((.def_122 (not .def_121))) (let ((.def_123 (* 1 x7))) (let ((.def_124 (< .def_123 1))) (let ((.def_125 (not A1))) (let ((.def_126 (= .def_125 .def_124))) (let ((.def_127 (not .def_126))) (let ((.def_128 (< .def_43 1))) (let ((.def_129 (not .def_128))) (let ((.def_130 (and .def_129 .def_74))) (let ((.def_131 (or .def_130 .def_127))) (let ((.def_132 (not .def_131))) (let ((.def_133 (or .def_132 .def_122))) (let ((.def_134 (or .def_133 .def_109))) (let ((.def_135 (and A6 .def_86))) (let ((.def_136 (not A7))) (let ((.def_137 (or .def_110 .def_136))) (let ((.def_138 (or .def_137 .def_135))) (let ((.def_139 (not .def_138))) (let ((.def_140 (+ .def_100 .def_0))) (let ((.def_141 (< .def_140 (- 1)))) (let ((.def_142 (not .def_141))) (let ((.def_143 (or .def_142 .def_17))) (let ((.def_144 (not .def_143))) (let ((.def_145 (+ .def_20 .def_111))) (let ((.def_146 (< .def_145 (- 1)))) (let ((.def_147 (or .def_146 .def_110))) (let ((.def_148 (and .def_147 .def_144))) (let ((.def_149 (not .def_148))) (let ((.def_150 (or .def_149 .def_139))) (let ((.def_151 (not .def_150))) (let ((.def_152 (not .def_124))) (let ((.def_153 (or A8 .def_152))) (let ((.def_154 (= A6 .def_55))) (let ((.def_155 (not .def_154))) (let ((.def_156 (and .def_155 .def_153))) (let ((.def_157 (+ .def_43 .def_9))) (let ((.def_158 (< .def_157 (- 1)))) (let ((.def_159 (not .def_158))) (let ((.def_160 (and .def_159 .def_74))) (let ((.def_161 (< .def_9 1))) (let ((.def_162 (and .def_161 .def_65))) (let ((.def_163 (not .def_162))) (let ((.def_164 (or .def_163 .def_160))) (let ((.def_165 (not .def_164))) (let ((.def_166 (and .def_165 .def_156))) (let ((.def_167 (or .def_166 .def_151))) (let ((.def_168 (and .def_167 .def_134))) (let ((.def_169 (and .def_168 .def_94))) (let ((.def_170 (<= x9 1))) (let ((.def_171 (<= 0 x9))) (let ((.def_172 (<= x8 1))) (let ((.def_173 (<= 0 x8))) (let ((.def_174 (<= x7 1))) (let ((.def_175 (<= 0 x7))) (let ((.def_176 (<= x6 1))) (let ((.def_177 (<= 0 x6))) (let ((.def_178 (<= x5 1))) (let ((.def_179 (<= 0 x5))) (let ((.def_180 (<= x4 1))) (let ((.def_181 (<= 0 x4))) (let ((.def_182 (<= x3 1))) (let ((.def_183 (<= 0 x3))) (let ((.def_184 (<= x2 1))) (let ((.def_185 (<= 0 x2))) (let ((.def_186 (<= x1 1))) (let ((.def_187 (<= 0 x1))) (let ((.def_188 (<= x0 1))) (let ((.def_189 (<= 0 x0))) (let ((.def_190 (and .def_189 .def_188 .def_187 .def_186 .def_185 .def_184 .def_183 .def_182 .def_181 .def_180 .def_179 .def_178 .def_177 .def_176 .def_175 .def_174 .def_173 .def_172 .def_171 .def_170 .def_169))) .def_190))))))))))))))))))))))))))))))))))))))))))))))))))))))))))))))))))))))))))))))))))))))))))))))))))))))))))))))))))))))))))))))))))))))))))))))))))))))))))))))))))))))))))))))))))))))))))))))))
(check-sat)
